NAME 
ROWS
 N  OBJ
 L  R0      
 E  R1      
 E  R2      
 E  R3      
 E  R4      
 E  R5      
 E  R6      
 E  R7      
 E  R8      
 E  R9      
 E  R10     
COLUMNS
    MARKER    'MARKER'                 'INTORG'
    I0(4)     OBJ       -87
    I0(4)     R0        -178
    I0(4)     R1        4
    I0(4)     R4        18
    I0(4)     R10       1
    I1(6)     OBJ       -172
    I1(6)     R0        77
    I1(6)     R1        15
    I1(6)     R2        9
    I1(6)     R3        9
    I1(6)     R4        12
    I1(6)     R10       1
    I2(6)     OBJ       -144
    I2(6)     R0        118
    I2(6)     R1        18
    I2(6)     R2        18
    I2(6)     R3        7
    I2(6)     R4        11
    I2(6)     R10       1
    I3(4)     OBJ       93
    I3(4)     R0        13
    I3(4)     R3        11
    I3(4)     R4        13
    I3(4)     R10       1
    MARKER    'MARKER'                 'INTEND'
    C4(5)     OBJ       8
    C4(5)     R0        -1
    C4(5)     R3        16
    C4(5)     R5        11
    C4(5)     R7        8
    C4(5)     R8        12
    C5(6)     OBJ       -7
    C5(6)     R0        -6
    C5(6)     R2        18
    C5(6)     R4        18
    C5(6)     R5        8
    C5(6)     R6        17
    C5(6)     R7        1
    C6(7)     OBJ       3
    C6(7)     R0        -10
    C6(7)     R1        -1
    C6(7)     R4        2
    C6(7)     R6        4
    C6(7)     R7        8
    C6(7)     R8        8
    C6(7)     R9        19
    C7(2)     OBJ       6
    C7(2)     R0        6
    C7(2)     R8        -1
    C8(5)     OBJ       -10
    C8(5)     R0        -3
    C8(5)     R1        15
    C8(5)     R2        -1
    C8(5)     R3        15
    C8(5)     R5        4
    C9(4)     OBJ       6
    C9(4)     R1        16
    C9(4)     R3        13
    C9(4)     R4        3
    C9(4)     R9        6
    C10(1)    R1        1
    C11(1)    R2        1
    C12(1)    R3        1
    C13(1)    R4        1
    C14(1)    R5        1
    C15(1)    R6        1
    C16(1)    R7        1
    C17(1)    R8        1
    C18(1)    R9        1
    C19(1)    R10       1
RHS
    RHS1      R0        4.5129411764705885e+01
    RHS1      R1        72
    RHS1      R2        91
    RHS1      R3        85
    RHS1      R4        87
    RHS1      R5        67
    RHS1      R6        58
    RHS1      R7        60
    RHS1      R8        87
    RHS1      R9        81
    RHS1      R10       1
BOUNDS
 UP BND1      I0(4)     2
 UP BND1      I1(6)     2
 UP BND1      I2(6)     2
 UP BND1      I3(4)     2
ENDATA
